Ni                                      
   1.00000000000000     
     3.5004471028737210   -0.0000000000000000    0.0000000000000000
    -0.0000000000000000    3.5004471028737210    0.0000000000000000
    -0.0000000000000000   -0.0000000000000000    3.5004471028737210
   Ni
     4
Direct
  0.0000000000000000  0.0000000000000000  0.0000000000000000
 -0.0000000000000000  0.5000000000851301  0.5000000000851301
  0.5000000000851301 -0.0000000000000000  0.5000000000851301
  0.5000000000851301  0.5000000000851301  0.0000000000000000
 
  0.00000000E+00  0.00000000E+00  0.00000000E+00
  0.00000000E+00  0.00000000E+00  0.00000000E+00
  0.00000000E+00  0.00000000E+00  0.00000000E+00
  0.00000000E+00  0.00000000E+00  0.00000000E+00
