Ru  C  O                                
   1.00000000000000     
    20.0000000000000000    0.0000000000000000    0.0000000000000000
     0.0000000000000000   20.0000000000000000    0.0000000000000000
     0.0000000000000000    0.0000000000000000   24.0000000000000000
   Ru   C 
    55     1
Selective dynamics
Direct
  0.5515672349212786  0.5717344180529317  0.4630847684137930   T   T   T
  0.3409680900386176  0.3686563983444737  0.4255353852657911   T   T   T
  0.5518275909458492  0.3704713083104981  0.5622757870337572   T   T   T
  0.3338804301581921  0.5643545723848362  0.5193833189891597   T   T   T
  0.5615452631820457  0.4982508121850791  0.3705220181279217   T   T   T
  0.5476920394087946  0.5024056018955756  0.5614300322337989   T   T   T
  0.5485768860284319  0.6949956532688616  0.4644084418041282   T   T   T
  0.5523229625053139  0.6291221707734292  0.3687728211143336   T   T   T
  0.6506019926293269  0.6963005075764577  0.5285641477540761   T   T   T
  0.5525228884752167  0.4307265884520469  0.4644800055115489   T   T   T
  0.5558484465481975  0.3708761057602635  0.3710529824673189   T   T   T
  0.4332694827805770  0.5650634940735598  0.5862415985785333   T   T   T
  0.3346629942158283  0.4368660640953666  0.5216619007304817   T   T   T
  0.6603745488605753  0.5639892418788413  0.3421042062632739   T   T   T
  0.3335947220143023  0.5024586621380116  0.6116545793065616   T   T   T
  0.5546928073050159  0.3040847576385615  0.4719491649919760   T   T   T
  0.6623001197011913  0.4360715136395560  0.3438526540860007   T   T   T
  0.6531094447560146  0.4341349338540609  0.5339160117149467   T   T   T
  0.4337888030516066  0.4996068536988659  0.4932983579175844   T   T   T
  0.3437438742057214  0.5670801962462386  0.3303906226252891   T   T   T
  0.6553496313499869  0.3111338350963587  0.5333657733281580   T   T   T
  0.4406627488129545  0.6296464781446168  0.4918590062192047   T   T   T
  0.3452339745648221  0.4273428283122048  0.3323150238108726   T   T   T
  0.5489901491356959  0.6360586378127899  0.5562886314016032   T   T   T
  0.4421417490507486  0.3728037892677265  0.4959107680096477   T   T   T
  0.4505788912434665  0.4966963852955501  0.3006510397859653   T   T   T
  0.6518101421138688  0.5729997587636062  0.5314693781106882   T   T   T
  0.6568298677998219  0.5020696110462896  0.4398638907538505   T   T   T
  0.6667851308369012  0.4985550610992370  0.2515250284925848   T   T   T
  0.3479377940706789  0.4955010804352833  0.2429124423860220   T   T   T
  0.6552424794764915  0.6319184568997139  0.4379322738431341   T   T   T
  0.4462098050391235  0.6301697527240715  0.3040254404520600   T   T   T
  0.3517654180842580  0.6183400489455895  0.2340489743624008   T   T   T
  0.6581692483681815  0.3726416583107859  0.4416113064181745   T   T   T
  0.3431492424809512  0.6912171151680357  0.3304188069644670   T   T   T
  0.3538626537745421  0.3725281503128752  0.2367908154205669   T   T   T
  0.4431472993524941  0.5696791035071491  0.3987328103534253   T   T   T
  0.4483945112874704  0.3640076395106605  0.3063700035563397   T   T   T
  0.4598323033979672  0.5638268565051007  0.2141197944736141   T   T   T
  0.4438213185350701  0.6930279330725779  0.3956106237742471   T   T   T
  0.3451962214566122  0.3031956749878154  0.3350929479453909   T   T   T
  0.4611603972131926  0.4279544551026357  0.2153884380879061   T   T   T
  0.4447516281876100  0.4277217308044021  0.4005491079108494   T   T   T
  0.5629678700063256  0.5601332275775754  0.2757406820778450   T   T   T
  0.5563371847322107  0.4967482186156462  0.1842291058975443   T   T   T
  0.4450680720973517  0.3009580239573876  0.3985507826890261   T   T   T
  0.5647299792524506  0.4354160467241381  0.2769891571672077   T   T   T
  0.6475707367255771  0.5056530874097314  0.6213808446250405   T   T   T
  0.3386617574062842  0.4983995998159347  0.4238784511405089   T   T   T
  0.4347966686863324  0.4394793459181803  0.5875859558538528   T   T   T
  0.6371020326631627  0.6273907327109141  0.6284940491345633   T   T   T
  0.3388821555578511  0.6289009700707316  0.4220697563143381   T   T   T
  0.5289451164718885  0.5693265397272654  0.6479195430374762   T   T   T
  0.6416975973181980  0.3844781740888241  0.6317636250705259   T   T   T
  0.5314340037748863  0.4413600074169128  0.6502833975185943   T   T   T
  0.5007883125224787  0.2414195718091859  0.4360391444153781   T   T   T
 
  0.00000000E+00  0.00000000E+00  0.00000000E+00
  0.00000000E+00  0.00000000E+00  0.00000000E+00
  0.00000000E+00  0.00000000E+00  0.00000000E+00
  0.00000000E+00  0.00000000E+00  0.00000000E+00
  0.00000000E+00  0.00000000E+00  0.00000000E+00
  0.00000000E+00  0.00000000E+00  0.00000000E+00
  0.00000000E+00  0.00000000E+00  0.00000000E+00
  0.00000000E+00  0.00000000E+00  0.00000000E+00
  0.00000000E+00  0.00000000E+00  0.00000000E+00
  0.00000000E+00  0.00000000E+00  0.00000000E+00
  0.00000000E+00  0.00000000E+00  0.00000000E+00
  0.00000000E+00  0.00000000E+00  0.00000000E+00
  0.00000000E+00  0.00000000E+00  0.00000000E+00
  0.00000000E+00  0.00000000E+00  0.00000000E+00
  0.00000000E+00  0.00000000E+00  0.00000000E+00
  0.00000000E+00  0.00000000E+00  0.00000000E+00
  0.00000000E+00  0.00000000E+00  0.00000000E+00
  0.00000000E+00  0.00000000E+00  0.00000000E+00
  0.00000000E+00  0.00000000E+00  0.00000000E+00
  0.00000000E+00  0.00000000E+00  0.00000000E+00
  0.00000000E+00  0.00000000E+00  0.00000000E+00
  0.00000000E+00  0.00000000E+00  0.00000000E+00
  0.00000000E+00  0.00000000E+00  0.00000000E+00
  0.00000000E+00  0.00000000E+00  0.00000000E+00
  0.00000000E+00  0.00000000E+00  0.00000000E+00
  0.00000000E+00  0.00000000E+00  0.00000000E+00
  0.00000000E+00  0.00000000E+00  0.00000000E+00
  0.00000000E+00  0.00000000E+00  0.00000000E+00
  0.00000000E+00  0.00000000E+00  0.00000000E+00
  0.00000000E+00  0.00000000E+00  0.00000000E+00
  0.00000000E+00  0.00000000E+00  0.00000000E+00
  0.00000000E+00  0.00000000E+00  0.00000000E+00
  0.00000000E+00  0.00000000E+00  0.00000000E+00
  0.00000000E+00  0.00000000E+00  0.00000000E+00
  0.00000000E+00  0.00000000E+00  0.00000000E+00
  0.00000000E+00  0.00000000E+00  0.00000000E+00
  0.00000000E+00  0.00000000E+00  0.00000000E+00
  0.00000000E+00  0.00000000E+00  0.00000000E+00
  0.00000000E+00  0.00000000E+00  0.00000000E+00
  0.00000000E+00  0.00000000E+00  0.00000000E+00
  0.00000000E+00  0.00000000E+00  0.00000000E+00
  0.00000000E+00  0.00000000E+00  0.00000000E+00
  0.00000000E+00  0.00000000E+00  0.00000000E+00
  0.00000000E+00  0.00000000E+00  0.00000000E+00
  0.00000000E+00  0.00000000E+00  0.00000000E+00
  0.00000000E+00  0.00000000E+00  0.00000000E+00
  0.00000000E+00  0.00000000E+00  0.00000000E+00
  0.00000000E+00  0.00000000E+00  0.00000000E+00
  0.00000000E+00  0.00000000E+00  0.00000000E+00
  0.00000000E+00  0.00000000E+00  0.00000000E+00
  0.00000000E+00  0.00000000E+00  0.00000000E+00
  0.00000000E+00  0.00000000E+00  0.00000000E+00
  0.00000000E+00  0.00000000E+00  0.00000000E+00
  0.00000000E+00  0.00000000E+00  0.00000000E+00
  0.00000000E+00  0.00000000E+00  0.00000000E+00
  0.00000000E+00  0.00000000E+00  0.00000000E+00
