Ti  O Ag  C  H 
 1.0000000000000000
    10.4848003386999995    0.0000000000000000    0.0000000000000000
     0.0000000000000000   11.6327998638000008    0.0000000000000000
     0.0000000000000000    0.0000000000000000   24.8376998901000015
 Ti  O   Ag  C   H  
  36  72   1   2   6
Selective dynamics
Cartesian
  8.6564608095000004  1.8879645958000000  0.7298792133999999   F   F   F
  3.3142454007000000  0.0000000000000000  0.8242863419999999   F   F   F
  6.4531849733000000  0.0000000000000000  1.6069523911000001   F   F   F
  1.1108644963000001  1.8879645958000000  1.7013595843000000   F   F   F
 10.1239907645000002  1.9114610616000001  4.4320745116999998   T   T   T
  4.9013903941999999 11.6224611905999993  4.3985517664999998   T   T   T
  7.8167859586999997 11.6097392691000003  5.2338577650999998   T   T   T
  2.5927585668000002  1.9214918697000001  5.3033724405999996   T   T   T
  1.1959100972000001  1.8916359580000000  8.0918631899999998   T   T   T
  6.4533657968000000 11.6193018303999995  8.1244061815999995   T   T   T
  9.3057571261999996 11.6231575398999993  8.7713307635000000   T   T   T
  4.1148306943000001  1.9284507084000000  8.8915703281000003   T   T   T
  8.6564608095000004  5.7655645510999998  0.7298792133999999   F   F   F
  3.3142454007000000  3.8775999541999999  0.8242863419999999   F   F   F
  6.4531849733000000  3.8775999541999999  1.6069523911000001   F   F   F
  1.1108644963000001  5.7655645510999998  1.7013595843000000   F   F   F
 10.1091426805999998  5.7866050700000002  4.4352977772999997   T   T   T
  4.8981360602999997  3.8511726320999999  4.3984788847000003   T   T   T
  7.8140100359000000  3.8425429664999999  5.2266546595000003   T   T   T
  2.6137126555000001  5.8025506706999996  5.2292200789000001   T   T   T
  1.1980757784000000  5.8115376640000003  8.0507269289999996   T   T   T
  6.4582907863000001  3.8476535369999998  8.1105373613000005   T   T   T
  9.2786539608999998  3.8936272991999998  8.8113869265999991   T   T   T
  4.2320740742999998  5.8379350282000004  8.6843303575000004   T   T   T
  8.6564608095000004  9.6431645052999997  0.7298792133999999   F   F   F
  3.3142454007000000  7.7551999095999999  0.8242863419999999   F   F   F
  6.4531849733000000  7.7551999095999999  1.6069523911000001   F   F   F
  1.1108644963000001  9.6431645052999997  1.7013595843000000   F   F   F
 10.1233970303999996  9.6720553249000005  4.4461641101999998   T   T   T
  4.9113354532000004  7.7445371786999999  4.3889595473999998   T   T   T
  7.8268504834000003  7.7310314071999997  5.2219105255000002   T   T   T
  2.6029513165000000  9.6810887292000007  5.2416203293999999   T   T   T
  1.2253362485999999  9.6793599615999995  8.1480037364999998   T   T   T
  6.5054914293000001  7.7910673665000001  8.0984873653000005   T   T   T
  9.3292131388000001  7.7417736246000004  8.7707772140000007   T   T   T
  4.1096551558999996  9.6854118435000007  8.7587310420000009   T   T   T
  5.3846790221000003  0.0000000000000000  0.0000000000000000   F   F   F
  0.0049278562000000  1.8879645958000000  0.0000000000000000   F   F   F
  8.2863471856000004  0.0000000000000000  0.8770731778000000   F   F   F
  2.9441320903000001  1.8879645958000000  0.9714803710000000   F   F   F
  6.8232985972000000  1.8879645958000000  1.4594199683000000   F   F   F
  1.4810828759000001  0.0000000000000000  1.5538271615000001   F   F   F
  4.6199174568999997  0.0000000000000000  2.3364931485999998   F   F   F
  9.7625027002000007  1.8879645958000000  2.4309004660000002   F   F   F
  6.7449582066999998 11.6016134317000006  3.6373625044000000   T   T   T
  1.4871296664000000  1.9307980924000001  3.6603708633999998   T   T   T
  9.7372952007000002 11.6032034784999993  4.5388693121000001   T   T   T
  4.4797210552999998  1.9236826520999999  4.5050503408000004   T   T   T
  8.2325610787999999  1.9109542458000000  5.1344185080999996   T   T   T
  3.0050009136000000 11.6134431749000004  5.1065261315999999   T   T   T
  6.0057766485000004  0.0065516841000000  6.0665670858000000   T   T   T
  0.7317338093000000  1.9474610251000000  6.0986367993000004   T   T   T
  8.3031776049000001 11.6156758845999999  7.1945037828000000   T   T   T
  2.9871346000000001  1.8888991829999999  7.2213034693000004   T   T   T
  0.8080133640000000 11.6191169989999992  8.2194287848999998   T   T   T
  6.0579152494999997  1.9319305037000001  8.2108740051000009   T   T   T
  9.7980856283000008  1.9226965568000001  8.9710068358000008   T   T   T
  4.6470035424000002 11.5429966790999998  9.0288466148000008   T   T   T
  7.6491620161000000 11.6029631426000002  9.6401887977000005   T   T   T
  2.3284585879000002  1.9996525411999999  9.7254138290000007   T   T   T
  5.3846790221000003  3.8775999541999999  0.0000000000000000   F   F   F
  0.0049278562000000  5.7655645510999998  0.0000000000000000   F   F   F
  8.2863471856000004  3.8775999541999999  0.8770731778000000   F   F   F
  2.9441320903000001  5.7655645510999998  0.9714803710000000   F   F   F
  6.8232985972000000  5.7655645510999998  1.4594199683000000   F   F   F
  1.4810828759000001  3.8775999541999999  1.5538271615000001   F   F   F
  4.6199174568999997  3.8775999541999999  2.3364931485999998   F   F   F
  9.7625027002000007  5.7655645510999998  2.4309004660000002   F   F   F
  6.7426031222000002  3.8429092558000000  3.6348442742999998   T   T   T
  1.4866937997000000  5.8029022007000002  3.6515348524000002   T   T   T
  9.7334807362000006  3.8530690748000000  4.5363157423000002   T   T   T
  4.4980373471000004  5.7998117456999996  4.4882659385999997   T   T   T
  8.2340880373999994  5.7885535985000001  5.1332975796999998   T   T   T
  3.0079038786000001  3.8683778823999999  5.1248848866000003   T   T   T
  6.0037615546999996  3.8429534810999999  6.0678722047999996   T   T   T
  0.7830098472000000  5.7749461985000003  6.0345666536999998   T   T   T
  8.3008414530000003  3.8527330600999998  7.2085113805000001   T   T   T
  3.1333646061999998  5.8278245989000004  7.1957358579999999   T   T   T
  0.8251061820000000  3.8539932813000002  8.3490305739000004   T   T   T
  6.0956327039999998  5.8302373138999997  8.0813196320999996   T   T   T
  9.7259175872999997  5.8201007341000004  8.9657082975000009   T   T   T
  4.6315870790000000  3.9772355512000002  9.0219081881999994   T   T   T
  7.6154191447999997  3.8725308947000001  9.6559497688999993   T   T   T
  2.5591783060000002  5.9100484027000002  9.8560409719000006   T   T   T
  5.3846790221000003  7.7551999095999999  0.0000000000000000   F   F   F
  0.0049278562000000  9.6431645052999997  0.0000000000000000   F   F   F
  8.2863471856000004  7.7551999095999999  0.8770731778000000   F   F   F
  2.9441320903000001  9.6431645052999997  0.9714803710000000   F   F   F
  6.8232985972000000  9.6431645052999997  1.4594199683000000   F   F   F
  1.4810828759000001  7.7551999095999999  1.5538271615000001   F   F   F
  4.6199174568999997  7.7551999095999999  2.3364931485999998   F   F   F
  9.7625027002000007  9.6431645052999997  2.4309004660000002   F   F   F
  6.7558496036999998  7.7249919970000001  3.6275068167000000   T   T   T
  1.4907051491000001  9.6845023527999992  3.6479215892000001   T   T   T
  9.7465510966999993  7.7258945633999998  4.5384806313999997   T   T   T
  4.5011485635000001  9.6809704178999993  4.4890320890000002   T   T   T
  8.2390004301000008  9.6672371117000004  5.1360886213999999   T   T   T
  3.0128516875000000  7.7401207208000002  5.0904986276999997   T   T   T
  6.0178611635000001  7.7480708051000002  6.0511973371999996   T   T   T
  0.7898144125000000  9.6732985139000007  6.0900155946999996   T   T   T
  8.3308192945999995  7.7619108500999996  7.1834178402999997   T   T   T
  3.0772993779000002  9.6854954029000009  7.1931479588000000   T   T   T
  0.8246193740000000  7.7794873506000002  8.2698914857000005   T   T   T
  6.0634252703999998  9.6820867717999999  8.0951234830000001   T   T   T
  9.8407866907999999  9.6972607543000002  8.9916286486000008   T   T   T
  4.6563250666000000  7.7498210401999996  9.0106639139000002   T   T   T
  7.6571250126999999  7.7932307730000003  9.6272523331999995   T   T   T
  2.4554787850999999  9.6539020924999992  9.6493572093999997   T   T   T
  1.4407392117000000  3.6970625445000000 10.7816227760000007   T   T   T
  1.7788368328999999  2.4933259083000001 12.8837120554000002   T   T   T
  2.6307584143999998  3.5353314338000001 13.0539361490000001   T   T   T
  2.1039793244000000  1.5584408024000000 12.4231741845000005   T   T   T
  0.7648136414000000  2.5228473102000000 13.2866320206000008   T   T   T
  3.6710169664999999  3.4838220612000002 12.7262039960000006   T   T   T
  0.3245787941000000  4.7401790235999997 11.3846859866999992   T   T   T
  2.3196636433000002  4.4452806863000003 13.5688650228000007   T   T   T
  2.4140127546999999  6.7336664484000002 10.3604820007999994   T   T   T
