Ti  O Ag                                
   1.00000000000000     
    10.4848003386999995    0.0000000000000000    0.0000000000000000
     0.0000000000000000   11.6327998638000008    0.0000000000000000
     0.0000000000000000    0.0000000000000000   24.8376998901000015
   Ti   O    Ag   C    H 
    36    72     1     2     6
Selective dynamics
Direct
  0.8256199955995811  0.1622966627041507  0.0293859422019551   F   F   F
  0.3161000013006401  0.0000000000000000  0.0331869032014751   F   F   F
  0.6154800058023895  0.0000000000000000  0.0646981160981213   F   F   F
  0.1059499905019408  0.1622966627041507  0.0684990796985261   F   F   F
  0.9655873681382161  0.1643165088353555  0.1784414229703515   F   F   F
  0.4674757969504384  0.9991112480811992  0.1770917510865502   F   F   F
  0.7455350322550061  0.9980176230168141  0.2107223208372133   F   F   F
  0.2472873572260568  0.1651787954918262  0.2135210773971039   F   F   F
  0.1140613133846884  0.1626122670493046  0.3257895548215330   T   T   T
  0.6154972520577502  0.9988396573841953  0.3270997804771056   T   T   T
  0.8875473853153224  0.9991711089326145  0.3531458549810154   T   T   T
  0.3924567527670035  0.1657770038977517  0.3579868654275558   T   T   T
  0.8256199955995811  0.4956299960976551  0.0293859422019551   F   F   F
  0.3161000013006401  0.3333333332989454  0.0331869032014751   F   F   F
  0.6154800058023895  0.3333333332989454  0.0646981160981213   F   F   F
  0.1059499905019408  0.4956299960976551  0.0684990796985261   F   F   F
  0.9641712149049297  0.4974387196333794  0.1785711960819611   F   F   F
  0.4671654110780423  0.3310615395425529  0.1770888167649218   F   F   F
  0.7452702753964715  0.3303197004581477  0.2104323138868125   F   F   F
  0.2492858777532092  0.4988094645001908  0.2105356012045334   F   F   F
  0.1142678677457027  0.4995820208442439  0.3241333523096088   T   T   T
  0.6159669786457584  0.3307590246555492  0.3265414026734774   T   T   T
  0.8849623894724772  0.3347111052220271  0.3547585712697341   T   T   T
  0.4036389761883896  0.5018512393010397  0.3496430988355002   T   T   T
  0.8256199955995811  0.8289633293966006  0.0293859422019551   F   F   F
  0.3161000013006401  0.6666666667010546  0.0331869032014751   F   F   F
  0.6154800058023895  0.6666666667010546  0.0646981160981213   F   F   F
  0.1059499905019408  0.8289633293966006  0.0684990796985261   F   F   F
  0.9655307400593927  0.8314468948269607  0.1790086896078549   F   F   F
  0.4684243184938879  0.6657500575420485  0.1767055551367420   F   F   F
  0.7464949479782348  0.6645890497315392  0.2102413085191301   F   F   F
  0.2482595025574668  0.8322234408352926  0.2110348523652661   F   F   F
  0.1168678667227212  0.8320748293539566  0.3280498505336737   T   T   T
  0.6204687947498826  0.6697499705730081  0.3260562532413473   T   T   T
  0.8897845297388756  0.6655124918585642  0.3531235683161214   T   T   T
  0.3919631297853599  0.8325950722905446  0.3526385728464945   T   T   T
  0.5135700106968031  0.0000000000000000  0.0000000000000000   F   F   F
  0.0004700000038937  0.1622966627041507  0.0000000000000000   F   F   F
  0.7903199792002340  0.0000000000000000  0.0353121739001949   F   F   F
  0.2808000148017129  0.1622966627041507  0.0391131375005926   F   F   F
  0.6507800222017437  0.1622966627041507  0.0587582575986332   F   F   F
  0.1412599980977447  0.0000000000000000  0.0625592211990380   F   F   F
  0.4406299889038081  0.0000000000000000  0.0940704315994765   F   F   F
  0.9311100244957515  0.1622966627041507  0.0978714002003400   F   F   F
  0.6433082165431401  0.9973190949328483  0.1464452232088433   F   F   F
  0.1418367177590341  0.1659787940140234  0.1473715714255377   F   F   F
  0.9287058299774245  0.9974557814415661  0.1827411286948148   F   F   F
  0.4272585944021330  0.1653671235319933  0.1813795303403154   F   F   F
  0.7851900668449687  0.1642729410093864  0.2067187594188837   F   F   F
  0.2866054494627193  0.9983360249358171  0.2055957739321670   F   F   F
  0.5728079175996967  0.0005632078418287  0.2442483447612744   T   T   T
  0.0697899612452204  0.1674112034858766  0.2455395155875593   T   T   T
  0.7919251999747559  0.9985279572054893  0.2896606293918822   T   T   T
  0.2849014290679932  0.1623770033972392  0.2907396216733176   T   T   T
  0.0770652122947411  0.9988237685715688  0.3309255213342084   T   T   T
  0.5777806971816943  0.1660761404274709  0.3305810941202054   T   T   T
  0.9345037875586968  0.1652823550064113  0.3611850886154429   T   T   T
  0.4432133557417117  0.9922801745306202  0.3635137977649663   T   T   T
  0.7295477042008685  0.9974351212485857  0.3881272758899144   T   T   T
  0.2220794400198400  0.1718977859662232  0.3915585530064760   T   T   T
  0.5135700106968031  0.3333333332989454  0.0000000000000000   F   F   F
  0.0004700000038937  0.4956299960976551  0.0000000000000000   F   F   F
  0.7903199792002340  0.3333333332989454  0.0353121739001949   F   F   F
  0.2808000148017129  0.4956299960976551  0.0391131375005926   F   F   F
  0.6507800222017437  0.4956299960976551  0.0587582575986332   F   F   F
  0.1412599980977447  0.3333333332989454  0.0625592211990380   F   F   F
  0.4406299889038081  0.3333333332989454  0.0940704315994765   F   F   F
  0.9311100244957515  0.4956299960976551  0.0978714002003400   F   F   F
  0.6430835976258606  0.3303511880883221  0.1463438357973246   F   F   F
  0.1417951464666913  0.4988396833644515  0.1470158214551702   F   F   F
  0.9283420209990254  0.3312245650155390  0.1826383184583094   F   F   F
  0.4290055319887642  0.4985740160241505  0.1807037671950056   F   F   F
  0.7853357022934944  0.4976062226010924  0.2066736292979385   F   F   F
  0.2868823231185118  0.3325405687102005  0.2063349226891447   F   F   F
  0.5726157256977089  0.3303549898659455  0.2443008906481623   T   T   T
  0.0746804728655022  0.4964364784139477  0.2429599632974231   T   T   T
  0.7917023867760022  0.3311956799029403  0.2902245945637603   T   T   T
  0.2988482856161951  0.5009821081007431  0.2897102344363987   T   T   T
  0.0786954596499498  0.3313040133446137  0.3361434678255932   T   T   T
  0.5813780431712914  0.5011895143150724  0.3253650566619797   T   T   T
  0.9276206768938735  0.5003181351218160  0.3609717621682762   T   T   T
  0.4417429926565646  0.3418983905667119  0.3632344471553139   T   T   T
  0.7263294386897670  0.3328975775394838  0.3887618342930423   T   T   T
  0.2440846008828430  0.5080503809786592  0.3968177816595926   T   T   T
  0.5135700106968031  0.6666666667010546  0.0000000000000000   F   F   F
  0.0004700000038937  0.8289633293966006  0.0000000000000000   F   F   F
  0.7903199792002340  0.6666666667010546  0.0353121739001949   F   F   F
  0.2808000148017129  0.8289633293966006  0.0391131375005926   F   F   F
  0.6507800222017437  0.8289633293966006  0.0587582575986332   F   F   F
  0.1412599980977447  0.6666666667010546  0.0625592211990380   F   F   F
  0.4406299889038081  0.6666666667010546  0.0940704315994765   F   F   F
  0.9311100244957515  0.8289633293966006  0.0978714002003400   F   F   F
  0.6443469961715707  0.6640698789153348  0.1460484196503984   F   F   F
  0.1421777335709251  0.8325168889853529  0.1468703465031425   F   F   F
  0.9295886217999723  0.6641474669775889  0.1827254798746054   F   F   F
  0.4293022678635126  0.8322132703431180  0.1807346134651269   F   F   F
  0.7858042274481249  0.8310327027789199  0.2067860004801503   F   F   F
  0.2873542261343189  0.6653704019172864  0.2049504845546934   F   F   F
  0.5739604922497605  0.6660538215956961  0.2436295375158792   T   T   T
  0.0753294661774220  0.8315537641151920  0.2451924140187103   T   T   T
  0.7945615582077963  0.6672435648298674  0.2892142940803311   T   T   T
  0.2935009993944959  0.8326022553756260  0.2896060420493640   T   T   T
  0.0786490297714408  0.6687545080849517  0.3329572191602352   T   T   T
  0.5783062218232757  0.8323092363998086  0.3259208187097684   T   T   T
  0.9385764509509968  0.8336136500112232  0.3620153511955309   T   T   T
  0.4441024069260777  0.6662042785024980  0.3627817371870137   T   T   T
  0.7303071842414184  0.6699359452797324  0.3876064360156590   T   T   T
  0.2341941387276805  0.8298863734880939  0.3884964087677787   T   T   T
  0.1374121743080963  0.3178136465700163  0.4340829796540788   T   T   T
  0.1696586272970393  0.2143358381052138  0.5187159886939767   T   T   T
  0.2509116367899367  0.3039106212783054  0.5255694451073651   T   T   T
  0.2006694697461811  0.1339695361987125  0.5001740998360162   T   T   T
  0.0729449886206694  0.2168736107996025  0.5349381013289758   T   T   T
  0.3501275034297535  0.2994826784640452  0.5123744973290059   T   T   T
  0.2212406119671542  0.3821333417887445  0.5463011906421329   T   T   T
  0.0309570791660718  0.4074839315647409  0.4583631349565920   T   T   T
  0.2302392679577849  0.5788517405277886  0.4171272721160122   T   T   T
 
  0.00000000E+00  0.00000000E+00  0.00000000E+00
  0.00000000E+00  0.00000000E+00  0.00000000E+00
  0.00000000E+00  0.00000000E+00  0.00000000E+00
  0.00000000E+00  0.00000000E+00  0.00000000E+00
  0.00000000E+00  0.00000000E+00  0.00000000E+00
  0.00000000E+00  0.00000000E+00  0.00000000E+00
  0.00000000E+00  0.00000000E+00  0.00000000E+00
  0.00000000E+00  0.00000000E+00  0.00000000E+00
  0.00000000E+00  0.00000000E+00  0.00000000E+00
  0.00000000E+00  0.00000000E+00  0.00000000E+00
  0.00000000E+00  0.00000000E+00  0.00000000E+00
  0.00000000E+00  0.00000000E+00  0.00000000E+00
  0.00000000E+00  0.00000000E+00  0.00000000E+00
  0.00000000E+00  0.00000000E+00  0.00000000E+00
  0.00000000E+00  0.00000000E+00  0.00000000E+00
  0.00000000E+00  0.00000000E+00  0.00000000E+00
  0.00000000E+00  0.00000000E+00  0.00000000E+00
  0.00000000E+00  0.00000000E+00  0.00000000E+00
  0.00000000E+00  0.00000000E+00  0.00000000E+00
  0.00000000E+00  0.00000000E+00  0.00000000E+00
  0.00000000E+00  0.00000000E+00  0.00000000E+00
  0.00000000E+00  0.00000000E+00  0.00000000E+00
  0.00000000E+00  0.00000000E+00  0.00000000E+00
  0.00000000E+00  0.00000000E+00  0.00000000E+00
  0.00000000E+00  0.00000000E+00  0.00000000E+00
  0.00000000E+00  0.00000000E+00  0.00000000E+00
  0.00000000E+00  0.00000000E+00  0.00000000E+00
  0.00000000E+00  0.00000000E+00  0.00000000E+00
  0.00000000E+00  0.00000000E+00  0.00000000E+00
  0.00000000E+00  0.00000000E+00  0.00000000E+00
  0.00000000E+00  0.00000000E+00  0.00000000E+00
  0.00000000E+00  0.00000000E+00  0.00000000E+00
  0.00000000E+00  0.00000000E+00  0.00000000E+00
  0.00000000E+00  0.00000000E+00  0.00000000E+00
  0.00000000E+00  0.00000000E+00  0.00000000E+00
  0.00000000E+00  0.00000000E+00  0.00000000E+00
  0.00000000E+00  0.00000000E+00  0.00000000E+00
  0.00000000E+00  0.00000000E+00  0.00000000E+00
  0.00000000E+00  0.00000000E+00  0.00000000E+00
  0.00000000E+00  0.00000000E+00  0.00000000E+00
  0.00000000E+00  0.00000000E+00  0.00000000E+00
  0.00000000E+00  0.00000000E+00  0.00000000E+00
  0.00000000E+00  0.00000000E+00  0.00000000E+00
  0.00000000E+00  0.00000000E+00  0.00000000E+00
  0.00000000E+00  0.00000000E+00  0.00000000E+00
  0.00000000E+00  0.00000000E+00  0.00000000E+00
  0.00000000E+00  0.00000000E+00  0.00000000E+00
  0.00000000E+00  0.00000000E+00  0.00000000E+00
  0.00000000E+00  0.00000000E+00  0.00000000E+00
  0.00000000E+00  0.00000000E+00  0.00000000E+00
  0.00000000E+00  0.00000000E+00  0.00000000E+00
  0.00000000E+00  0.00000000E+00  0.00000000E+00
  0.00000000E+00  0.00000000E+00  0.00000000E+00
  0.00000000E+00  0.00000000E+00  0.00000000E+00
  0.00000000E+00  0.00000000E+00  0.00000000E+00
  0.00000000E+00  0.00000000E+00  0.00000000E+00
  0.00000000E+00  0.00000000E+00  0.00000000E+00
  0.00000000E+00  0.00000000E+00  0.00000000E+00
  0.00000000E+00  0.00000000E+00  0.00000000E+00
  0.00000000E+00  0.00000000E+00  0.00000000E+00
  0.00000000E+00  0.00000000E+00  0.00000000E+00
  0.00000000E+00  0.00000000E+00  0.00000000E+00
  0.00000000E+00  0.00000000E+00  0.00000000E+00
  0.00000000E+00  0.00000000E+00  0.00000000E+00
  0.00000000E+00  0.00000000E+00  0.00000000E+00
  0.00000000E+00  0.00000000E+00  0.00000000E+00
  0.00000000E+00  0.00000000E+00  0.00000000E+00
  0.00000000E+00  0.00000000E+00  0.00000000E+00
  0.00000000E+00  0.00000000E+00  0.00000000E+00
  0.00000000E+00  0.00000000E+00  0.00000000E+00
  0.00000000E+00  0.00000000E+00  0.00000000E+00
  0.00000000E+00  0.00000000E+00  0.00000000E+00
  0.00000000E+00  0.00000000E+00  0.00000000E+00
  0.00000000E+00  0.00000000E+00  0.00000000E+00
  0.00000000E+00  0.00000000E+00  0.00000000E+00
  0.00000000E+00  0.00000000E+00  0.00000000E+00
  0.00000000E+00  0.00000000E+00  0.00000000E+00
  0.00000000E+00  0.00000000E+00  0.00000000E+00
  0.00000000E+00  0.00000000E+00  0.00000000E+00
  0.00000000E+00  0.00000000E+00  0.00000000E+00
  0.00000000E+00  0.00000000E+00  0.00000000E+00
  0.00000000E+00  0.00000000E+00  0.00000000E+00
  0.00000000E+00  0.00000000E+00  0.00000000E+00
  0.00000000E+00  0.00000000E+00  0.00000000E+00
  0.00000000E+00  0.00000000E+00  0.00000000E+00
  0.00000000E+00  0.00000000E+00  0.00000000E+00
  0.00000000E+00  0.00000000E+00  0.00000000E+00
  0.00000000E+00  0.00000000E+00  0.00000000E+00
  0.00000000E+00  0.00000000E+00  0.00000000E+00
  0.00000000E+00  0.00000000E+00  0.00000000E+00
  0.00000000E+00  0.00000000E+00  0.00000000E+00
  0.00000000E+00  0.00000000E+00  0.00000000E+00
  0.00000000E+00  0.00000000E+00  0.00000000E+00
  0.00000000E+00  0.00000000E+00  0.00000000E+00
  0.00000000E+00  0.00000000E+00  0.00000000E+00
  0.00000000E+00  0.00000000E+00  0.00000000E+00
  0.00000000E+00  0.00000000E+00  0.00000000E+00
  0.00000000E+00  0.00000000E+00  0.00000000E+00
  0.00000000E+00  0.00000000E+00  0.00000000E+00
  0.00000000E+00  0.00000000E+00  0.00000000E+00
  0.00000000E+00  0.00000000E+00  0.00000000E+00
  0.00000000E+00  0.00000000E+00  0.00000000E+00
  0.00000000E+00  0.00000000E+00  0.00000000E+00
  0.00000000E+00  0.00000000E+00  0.00000000E+00
  0.00000000E+00  0.00000000E+00  0.00000000E+00
  0.00000000E+00  0.00000000E+00  0.00000000E+00
  0.00000000E+00  0.00000000E+00  0.00000000E+00
  0.00000000E+00  0.00000000E+00  0.00000000E+00
  0.00000000E+00  0.00000000E+00  0.00000000E+00
  0.00000000E+00  0.00000000E+00  0.00000000E+00
  0.00000000E+00  0.00000000E+00  0.00000000E+00
  0.00000000E+00  0.00000000E+00  0.00000000E+00
  0.00000000E+00  0.00000000E+00  0.00000000E+00
  0.00000000E+00  0.00000000E+00  0.00000000E+00
  0.00000000E+00  0.00000000E+00  0.00000000E+00
  0.00000000E+00  0.00000000E+00  0.00000000E+00
  0.00000000E+00  0.00000000E+00  0.00000000E+00
