Pt                                      
   1.00000000000000     
     3.9541157948248293    0.0000000000000000    0.0000000000000000
     0.0000000000000000    3.9541157948248293    0.0000000000000000
     0.0000000000000000    0.0000000000000000    3.9541157948248293
   Pt
     4
Direct
  0.0000000000000000  0.0000000000000000  0.0000000000000000
  0.0000000000000000  0.5000000000000000  0.5000000000000000
  0.5000000000000000  0.0000000000000000  0.5000000000000000
  0.5000000000000000  0.5000000000000000  0.0000000000000000
 
  0.00000000E+00  0.00000000E+00  0.00000000E+00
  0.00000000E+00  0.00000000E+00  0.00000000E+00
  0.00000000E+00  0.00000000E+00  0.00000000E+00
  0.00000000E+00  0.00000000E+00  0.00000000E+00
