Pd                                      
   1.00000000000000     
     3.9271740364221923   -0.0000000000000000    0.0000000000000000
    -0.0000000000000000    3.9271740364221936    0.0000000000000000
    -0.0000000000000000    0.0000000000000000    3.9271740364221936
   Pd
     4
Direct
  0.0000000000000000 -0.0000000000000000  0.0000000000000000
  0.0000000000000000  0.5000000000000000  0.5000000000000000
  0.5000000000000000 -0.0000000000000000  0.5000000000000000
  0.5000000000000000  0.5000000000000000  0.0000000000000000
 
  0.00000000E+00  0.00000000E+00  0.00000000E+00
  0.00000000E+00  0.00000000E+00  0.00000000E+00
  0.00000000E+00  0.00000000E+00  0.00000000E+00
  0.00000000E+00  0.00000000E+00  0.00000000E+00
