Ru                                      
   1.00000000000000     
     2.7058000565000002    0.0000000000000000    0.0000000000000000
    -1.3529000282000001    2.3432915864999999    0.0000000000000000
     0.0000000000000000    0.0000000000000000    4.2815999984999999
   Ru
     2
Selective dynamics
Direct
  0.3333333429972214  0.6666666869799727  0.2499999999941593   T   T   T
  0.6666666269931767  0.3333333130200273  0.7500000000058407   T   T   T
 
  0.00000000E+00  0.00000000E+00  0.00000000E+00
  0.00000000E+00  0.00000000E+00  0.00000000E+00
