Co                                      
   1.00000000000000     
     2.5009275262750319    0.0000000000001068    0.0000000000000000
    -1.2504637631873308    2.1658667707542834    0.0000000000000000
    -0.0000000000000000   -0.0000000000000000    4.0144927507989410
   Co
     2
Direct
  0.3333333485701573  0.6666666971137047  0.2500000000252243
  0.6666666129807481  0.3333333211360809  0.7499999849423489
 
  0.00000000E+00  0.00000000E+00  0.00000000E+00
  0.00000000E+00  0.00000000E+00  0.00000000E+00
