Co                                      
1.0
 +2.5055708885  +0.0000000000  +0.0000000000 
 -1.2527854443  +2.1698880404  +0.0000000000 
 +0.0000000000  +0.0000000000  +3.9647614956 
Co
 2
Cartesian
 +0.0000000000  +1.4465920930  +0.9911903740 
 +1.2527853250  +0.7232959870  +2.9735710620 
