Ir                                      
   1.00000000000000     
     3.8390000000000000    0.0000000000000000    0.0000000000000000
     0.0000000000000000    3.8390000000000000    0.0000000000000000
     0.0000000000000000    0.0000000000000000    3.8390000000000000
   Ir
     4
Direct
  0.0000000000000000  0.0000000000000000  0.0000000000000000
  0.0000000000000000  0.5000000000000000  0.5000000000000000
  0.5000000000000000  0.0000000000000000  0.5000000000000000
  0.5000000000000000  0.5000000000000000  0.0000000000000000
 
  0.00000000E+00  0.00000000E+00  0.00000000E+00
  0.00000000E+00  0.00000000E+00  0.00000000E+00
  0.00000000E+00  0.00000000E+00  0.00000000E+00
  0.00000000E+00  0.00000000E+00  0.00000000E+00
