H                                       
   1.00000000000000     
     8.3282823562619992    0.0000000000000000    0.0000000000000000
     0.0000000000000000   16.0227890014650001    0.0000000000000000
     0.0000000000000000    0.0000000000000000   20.0000000000000000
   H 
     2
Selective dynamics
Direct
  0.6510192149742990  0.7210733942910167  0.6634573189154109   T   T   T
  0.5857712461316980  0.7438724973859877  0.6801472457505910   T   T   T
 
  0.00000000E+00  0.00000000E+00  0.00000000E+00
  0.00000000E+00  0.00000000E+00  0.00000000E+00
