N                                       
   1.00000000000000     
     8.3282823562619992    0.0000000000000000    0.0000000000000000
     0.0000000000000000   16.0227890014650001    0.0000000000000000
     0.0000000000000000    0.0000000000000000   20.0000000000000000
   N 
     2
Selective dynamics
Direct
  0.6490938773203714  0.7215241004949705  0.6637854767197805   T   T   T
  0.5276965837856304  0.7434217911820339  0.6798190879462215   T   T   T
 
  0.00000000E+00  0.00000000E+00  0.00000000E+00
  0.00000000E+00  0.00000000E+00  0.00000000E+00
