 N  H                                   
   1.00000000000000     
    21.6276620000000008    0.0000000000000000    0.0000000000000000
     0.0000000000000000   21.4095960000000005    0.0000000000000000
     0.0000000000000000    0.0000000000000000   20.3882970000000014
   N    H 
     1     3
Direct
  0.5000000000000000  0.4890267429614283  0.5095225461940274
  0.5000000000000000  0.5329197244076909  0.4904774538059726
  0.5376291713824628  0.4670802755923091  0.4904774538059726
  0.4623708286175373  0.4670802755923092  0.4897417376252636
 
  0.00000000E+00  0.00000000E+00  0.00000000E+00
  0.00000000E+00  0.00000000E+00  0.00000000E+00
  0.00000000E+00  0.00000000E+00  0.00000000E+00
  0.00000000E+00  0.00000000E+00  0.00000000E+00
