Fe                                      
   1.00000000000000     
     2.8317196478989954   -0.0000000000000000   -0.0000000000000000
     0.0000000000000000    2.8317196478989954    0.0000000000000000
    -0.0000000000000000   -0.0000000000000000    2.8317196478989954
   Fe
     2
Direct
 -0.0000000000000000 -0.0000000000000000 -0.0000000000000000
  0.5000000001046629  0.5000000001046629  0.5000000001046629
 
  0.00000000E+00  0.00000000E+00  0.00000000E+00
  0.00000000E+00  0.00000000E+00  0.00000000E+00
