Fe
1.0
        2.8664000034         0.0000000000         0.0000000000
        0.0000000000         2.8664000034         0.0000000000
        0.0000000000         0.0000000000         2.8664000034
   Fe
    2
Cartesian
     0.000000000         0.000000000         0.000000000
     1.433200002         1.433200002         1.433200002
